proyfinal/src/viki/013/experimentInOfficeAgust.take6.output/3621e5b8-7d0e-4cb7-9864-bf05cd045c3e.als.out
Reading from standard input... Use '--help' for help.
============================[ Problem Statistics ]=============================
|                                                                             |
|  Number of variables:         87638                                         |
|  Number of clauses:          161767                                         |
|  Parse time:                   0.03 s                                       |
|                                                                             |
============================[ Search Statistics ]==============================
| Conflicts |          ORIGINAL         |          LEARNT          | Progress |
|           |    Vars  Clauses Literals |    Limit  Clauses Lit/Cl |          |
===============================================================================
|       100 |   63809   110326   275829 |    40452      100     28 | 27.190 % |
|       250 |   63809   110326   275829 |    44498      250     35 | 27.190 % |
|       475 |   63809   110326   275829 |    48947      475     36 | 27.190 % |
|       812 |   63809   110326   275829 |    53842      812     43 | 27.190 % |
|      1318 |   51863    75718   190719 |    59227     1304     51 | 40.821 % |
|      2077 |   51853    75682   190629 |    65149     2060     59 | 40.833 % |
|      3216 |   51751    75282   189713 |    71664     3190     60 | 40.949 % |
|      4924 |   50707    71387   180195 |    78831     4826     54 | 42.140 % |
|      7486 |   50551    70643   178423 |    86714     6409     55 | 42.318 % |
|     11330 |   49975    68706   173576 |    95385     9772     51 | 42.976 % |
|     17096 |   49756    67580   170935 |   104924    13534     49 | 43.226 % |
===============================================================================
restarts              : 63
conflicts             : 18722          (7539 /sec)
decisions             : 57061          (0.00 % random) (22979 /sec)
propagations          : 28343464       (11414097 /sec)
conflict literals     : 910727         (47.13 % deleted)
Memory used           : 31.84 MB
CPU time              : 2.4832 s

INDETERMINATE
